 vasp.5.4.1 05Feb16 (build Jan 17 2017 23:57:57) complex

 executed on           IFC91_ompi date 2019.08.24  00:07:30

 INCAR:
 POTCAR:    PAW_PBE Al 04Jan2001
 POTCAR:    PAW_PBE Ni 02Aug2007
 POTCAR:    PAW_PBE Ti_sv 26Sep2005
 POTCAR:    PAW_PBE Al 04Jan2001
   VRHFIN =Al: s2p1

   TITEL  = PAW_PBE Al 04Jan2001
   POMASS =   26.981; ZVAL   =    3.000    mass and valenz
   ENMAX  =  240.300; ENMIN  =  180.225 eV

 POTCAR:    PAW_PBE Ni 02Aug2007
   VRHFIN =Ni:

   TITEL  = PAW_PBE Ni 02Aug2007
   POMASS =   58.690; ZVAL   =   10.000    mass and valenz
   ENMAX  =  269.532; ENMIN  =  202.149 eV

 POTCAR:    PAW_PBE Ti_sv 26Sep2005
   VRHFIN =Ti: 3p4s3d

   TITEL  = PAW_PBE Ti_sv 26Sep2005
   POMASS =   47.880; ZVAL   =   12.000    mass and valenz
   ENMAX  =  274.610; ENMIN  =  205.957 eV

  PAW_PBE Al 04Jan2001                  :
  PAW_PBE Ni 02Aug2007                  :
  PAW_PBE Ti_sv 26Sep2005               :

 POSCAR: SCEL2_1_1_2_0_0_0/9398
  positions in direct lattice
  velocities in cartesian coordinates
 exchange correlation table for  LEXCH =        8
   RHO(1)=    0.500       N(1)  =     2000
   RHO(2)=  100.500       N(2)  =     4000

 ion  position               nearest neighbor table
   1  0.333  0.667  0.938-  39 2.53  37 2.53  35 2.53  33 2.55  33 2.55  31 2.55  29 2.55  29 2.55
                            31 2.55  25 2.55  27 2.55  23 2.55
   2  0.333  0.667  0.125-  43 2.53  45 2.53  41 2.53  20 2.55  20 2.55  47 2.55  49 2.55  49 2.55
                            47 2.55  14 2.55  16 2.55  18 2.55
   3  0.172  0.344  0.750-   7 2.47   9 2.47  56 2.51  17 2.53  13 2.53   5 2.53  21 2.53  58 2.55
                            58 2.55  60 2.59   9 2.63   7 2.63
   4  0.495  0.990  0.313-  11 2.47   6 2.47  61 2.51  24 2.53  26 2.53  10 2.53   8 2.53  59 2.55
                            59 2.55  57 2.59   6 2.63  11 2.63
   5  0.495  0.505  0.813-  21 2.46  19 2.46  58 2.51   3 2.53   7 2.53  23 2.54  27 2.54  60 2.55
                            60 2.55  62 2.55  21 2.63  19 2.63
   6  0.495  0.505  0.313-  11 2.47   4 2.47  61 2.51  22 2.53  26 2.53  12 2.53   8 2.53  59 2.55
                            59 2.55  57 2.59  11 2.63   4 2.63
   7  0.656  0.828  0.750-   9 2.47   3 2.47  56 2.51  17 2.53  15 2.53   5 2.53  19 2.53  58 2.55
                            58 2.55  60 2.59   9 2.63   3 2.63
   8  0.656  0.828  0.250-  10 2.46  12 2.46  59 2.51   6 2.53   4 2.53  18 2.54  16 2.54  57 2.55
                            57 2.55  55 2.55  10 2.63  12 2.63
   9  0.172  0.828  0.750-   7 2.47   3 2.47  56 2.51  15 2.53  13 2.53  19 2.53  21 2.53  58 2.55
                            58 2.55  60 2.59   7 2.63   3 2.63
  10  0.172  0.828  0.250-   8 2.46  12 2.46  59 2.51   4 2.53  11 2.53  16 2.54  14 2.54  57 2.55
                            57 2.55  55 2.55   8 2.63  12 2.63
  11  0.010  0.505  0.313-   6 2.47   4 2.47  61 2.51  24 2.53  22 2.53  10 2.53  12 2.53  59 2.55
                            59 2.55  57 2.59   6 2.63   4 2.63
  12  0.172  0.344  0.250-   8 2.46  10 2.46  59 2.51   6 2.53  11 2.53  18 2.54  14 2.54  57 2.55
                            57 2.55  55 2.55  10 2.63   8 2.63
  13  0.998  0.499  0.687-  54 2.53  17 2.53  15 2.53   9 2.53   3 2.53  50 2.54  34 2.54  56 2.55
                            56 2.55  17 2.56  15 2.56  58 2.61
  14  0.998  0.499  0.187-  18 2.53  16 2.53  49 2.54  20 2.54  10 2.54  12 2.54  57 2.54  55 2.55
                            55 2.55   2 2.55  18 2.56  16 2.56
  15  0.501  0.002  0.687-  54 2.53  17 2.53  13 2.53   9 2.53   7 2.53  50 2.54  48 2.54  56 2.55
                            56 2.55  17 2.56  13 2.56  58 2.61
  16  0.501  0.002  0.187-  18 2.53  14 2.53  49 2.54  47 2.54  10 2.54   8 2.54  57 2.54  55 2.55
                            55 2.55   2 2.55  14 2.56  18 2.56
  17  0.501  0.499  0.687-  54 2.53  13 2.53  15 2.53   3 2.53   7 2.53  34 2.54  48 2.54  56 2.55
                            56 2.55  13 2.56  15 2.56  58 2.61
  18  0.501  0.499  0.187-  14 2.53  16 2.53  20 2.54  47 2.54  12 2.54   8 2.54  57 2.54  55 2.55
                            55 2.55   2 2.55  14 2.56  16 2.56
  19  0.495  0.989  0.813-   5 2.46  21 2.46  58 2.51   9 2.53   7 2.53  25 2.54  27 2.54  60 2.55
                            60 2.55  62 2.55   5 2.63  21 2.63
  20  0.833  0.666  0.125-  18 2.54  14 2.54  45 2.54  43 2.54  47 2.54  49 2.54   2 2.55   2 2.55
                            49 2.55  47 2.55  55 2.56  52 2.58
  21  0.011  0.505  0.813-   5 2.46  19 2.46  58 2.51   9 2.53   3 2.53  25 2.54  23 2.54  60 2.55
                            60 2.55  62 2.55   5 2.63  19 2.63
  22  0.166  0.331  0.375-  63 2.53  26 2.53  24 2.53   6 2.53  11 2.53  28 2.54  30 2.54  61 2.55
                            61 2.55  26 2.56  24 2.56  59 2.61
  23  0.166  0.332  0.875-  25 2.53  27 2.53  29 2.54  31 2.54   5 2.54  21 2.54  60 2.54  62 2.55
                            62 2.55   1 2.55  25 2.56  27 2.56
  24  0.166  0.834  0.375-  63 2.53  26 2.53  22 2.53   4 2.53  11 2.53  32 2.54  28 2.54  61 2.55
                            61 2.55  26 2.56  22 2.56  59 2.61
  25  0.166  0.834  0.875-  27 2.53  23 2.53  33 2.54  29 2.54  19 2.54  21 2.54  60 2.54  62 2.55
                            62 2.55   1 2.55  27 2.56  23 2.56
  26  0.669  0.834  0.375-  63 2.53  24 2.53  22 2.53   6 2.53   4 2.53  32 2.54  30 2.54  61 2.55
                            61 2.55  24 2.56  22 2.56  59 2.61
  27  0.668  0.834  0.875-  25 2.53  23 2.53  33 2.54  31 2.54   5 2.54  19 2.54  60 2.54  62 2.55
                            62 2.55   1 2.55  25 2.56  23 2.56
  28  0.333  0.167  0.438-  51 2.54  22 2.54  24 2.54  36 2.54  38 2.54  30 2.54  32 2.54  63 2.55
                            63 2.55  30 2.55  32 2.55  61 2.59
  29  0.333  0.166  0.938-  23 2.54  25 2.54  35 2.54  37 2.54  31 2.54  33 2.54   1 2.55   1 2.55
                            31 2.55  33 2.55  62 2.56  64 2.58
  30  0.833  0.167  0.438-  51 2.54  22 2.54  26 2.54  38 2.54  40 2.54  28 2.54  32 2.54  63 2.55
                            63 2.55  28 2.55  32 2.55  61 2.59
  31  0.834  0.166  0.938-  23 2.54  27 2.54  37 2.54  39 2.54  29 2.54  33 2.54   1 2.55   1 2.55
                            29 2.55  33 2.55  62 2.56  64 2.58
  32  0.833  0.667  0.438-  51 2.54  26 2.54  24 2.54  36 2.54  40 2.54  30 2.54  28 2.54  63 2.55
                            63 2.55  28 2.55  30 2.55  61 2.59
  33  0.834  0.667  0.938-  27 2.54  25 2.54  35 2.54  39 2.54  29 2.54  31 2.54   1 2.55   1 2.55
                            31 2.55  29 2.55  62 2.56  64 2.58
  34  0.833  0.667  0.625-  53 2.54  17 2.54  13 2.54  46 2.54  44 2.54  50 2.54  48 2.54  54 2.55
                            54 2.55  48 2.55  50 2.55  56 2.59
  35  0.500  0.500  1.000-  52 2.51   1 2.53  33 2.54  29 2.54  39 2.54  37 2.54  64 2.55  64 2.55
                            39 2.55  37 2.55  41 2.56  45 2.56
  36  0.500  0.500  0.500-  32 2.54  28 2.54  42 2.54  46 2.54  40 2.55  38 2.55  51 2.55  51 2.55
                            40 2.55  38 2.55  53 2.55  63 2.56
  37  0.500  1.000  1.000-  52 2.51   1 2.53  31 2.54  29 2.54  39 2.54  35 2.54  64 2.55  64 2.55
                            35 2.55  39 2.55  43 2.56  45 2.56
  38  0.500  1.000  0.500-  30 2.54  28 2.54  44 2.54  46 2.54  40 2.55  36 2.55  51 2.55  51 2.55
                            36 2.55  40 2.55  53 2.55  63 2.56
  39  0.000  0.500  1.000-  52 2.51   1 2.53  31 2.54  33 2.54  35 2.54  37 2.54  64 2.55  64 2.55
                            35 2.55  37 2.55  43 2.56  41 2.56
  40  0.000  0.500  0.500-  30 2.54  32 2.54  44 2.54  42 2.54  36 2.55  38 2.55  51 2.55  51 2.55
                            36 2.55  38 2.55  53 2.55  63 2.56
  41  0.167  0.334  0.063-  64 2.51   2 2.53  47 2.54  49 2.54  45 2.54  43 2.54  52 2.55  52 2.55
                            43 2.55  45 2.55  35 2.56  39 2.56
  42  0.167  0.333  0.562-  48 2.54  50 2.54  36 2.54  40 2.54  46 2.55  44 2.55  53 2.55  53 2.55
                            44 2.55  46 2.55  51 2.55  54 2.56
  43  0.167  0.833  0.063-  64 2.51   2 2.53  20 2.54  47 2.54  45 2.54  41 2.54  52 2.55  52 2.55
                            45 2.55  41 2.55  37 2.56  39 2.56
  44  0.167  0.833  0.562-  34 2.54  48 2.54  38 2.54  40 2.54  46 2.55  42 2.55  53 2.55  53 2.55
                            46 2.55  42 2.55  51 2.55  54 2.56
  45  0.666  0.833  0.063-  64 2.51   2 2.53  20 2.54  49 2.54  43 2.54  41 2.54  52 2.55  52 2.55
                            43 2.55  41 2.55  35 2.56  37 2.56
  46  0.667  0.833  0.562-  34 2.54  50 2.54  36 2.54  38 2.54  44 2.55  42 2.55  53 2.55  53 2.55
                            44 2.55  42 2.55  51 2.55  54 2.56
  47  0.334  0.167  0.125-  18 2.54  16 2.54  41 2.54  43 2.54  49 2.54  20 2.54   2 2.55   2 2.55
                            49 2.55  20 2.55  55 2.56  52 2.58
  48  0.333  0.167  0.625-  53 2.54  17 2.54  15 2.54  42 2.54  44 2.54  50 2.54  34 2.54  54 2.55
                            54 2.55  50 2.55  34 2.55  56 2.59
  49  0.833  0.167  0.125-  16 2.54  14 2.54  41 2.54  45 2.54  47 2.54  20 2.54   2 2.55   2 2.55
                            47 2.55  20 2.55  55 2.56  52 2.58
  50  0.833  0.167  0.625-  53 2.54  15 2.54  13 2.54  42 2.54  46 2.54  48 2.54  34 2.54  54 2.55
                            54 2.55  48 2.55  34 2.55  56 2.59
  51  0.000  0.000  0.500-  28 2.54  32 2.54  30 2.54  38 2.55  38 2.55  40 2.55  36 2.55  36 2.55
                            40 2.55  46 2.55  42 2.55  44 2.55
  52  0.667  0.333  0.061-  39 2.51  37 2.51  35 2.51  41 2.55  41 2.55  45 2.55  43 2.55  43 2.55
                            45 2.55  49 2.58  47 2.58  20 2.58
  53  0.667  0.333  0.563-  50 2.54  48 2.54  34 2.54  42 2.55  42 2.55  46 2.55  44 2.55  44 2.55
                            46 2.55  40 2.55  38 2.55  36 2.55
  54  0.333  0.667  0.625-  13 2.53  15 2.53  17 2.53  34 2.55  34 2.55  48 2.55  50 2.55  50 2.55
                            48 2.55  44 2.56  46 2.56  42 2.56
  55  0.000  0.000  0.188-  16 2.55  16 2.55  14 2.55  18 2.55  14 2.55  18 2.55   8 2.55  12 2.55
                            10 2.55  47 2.56  20 2.56  49 2.56
  56  0.000  0.000  0.689-   7 2.51   3 2.51   9 2.51  15 2.55  15 2.55  17 2.55  13 2.55  13 2.55
                            17 2.55  48 2.59  34 2.59  50 2.59
  57  0.667  0.333  0.250-  14 2.54  16 2.54  18 2.54  12 2.55  12 2.55   8 2.55  10 2.55  10 2.55
                             8 2.55  11 2.59   4 2.59   6 2.59
  58  0.667  0.333  0.752-  21 2.51  19 2.51   5 2.51   3 2.55   3 2.55   9 2.55   7 2.55   7 2.55
                             9 2.55  13 2.61  15 2.61  17 2.61
  59  0.000  0.000  0.310-   8 2.51  12 2.51  10 2.51   4 2.55   4 2.55  11 2.55   6 2.55  11 2.55
                             6 2.55  26 2.61  22 2.61  24 2.61
  60  0.000  0.000  0.813-  27 2.54  23 2.54  25 2.54  19 2.55  19 2.55  21 2.55   5 2.55   5 2.55
                            21 2.55   7 2.59   3 2.59   9 2.59
  61  0.667  0.333  0.373-  11 2.51   4 2.51   6 2.51  22 2.55  22 2.55  24 2.55  26 2.55  26 2.55
                            24 2.55  30 2.59  28 2.59  32 2.59
  62  0.667  0.333  0.874-  23 2.55  23 2.55  25 2.55  27 2.55  27 2.55  25 2.55  21 2.55  19 2.55
[...]
   0.459E-04 0.175E+02 -.305E+03   -.199E-05 -.168E+02 0.306E+03   -.243E-16 -.677E+00 -.521E+00   -.159E-08 -.107E-02 0.374E-01
   0.410E-06 -.175E+02 0.305E+03   0.234E-05 0.168E+02 -.306E+03   -.104E-16 0.677E+00 0.521E+00   0.153E-08 0.107E-02 -.374E-01
   -.786E+01 0.454E+01 -.406E+03   0.711E+01 -.410E+01 0.406E+03   0.741E+00 -.428E+00 -.395E+00   0.106E-02 -.614E-03 0.669E-01
   -.152E+02 0.875E+01 0.305E+03   0.146E+02 -.841E+01 -.306E+03   0.587E+00 -.339E+00 0.521E+00   0.926E-03 -.535E-03 -.374E-01
   -.152E+02 -.875E+01 -.305E+03   0.146E+02 0.841E+01 0.306E+03   0.587E+00 0.339E+00 -.521E+00   0.926E-03 0.535E-03 0.374E-01
   -.786E+01 -.454E+01 0.406E+03   0.711E+01 0.410E+01 -.406E+03   0.741E+00 0.428E+00 0.395E+00   0.106E-02 0.614E-03 -.669E-01
   0.152E+02 -.875E+01 -.305E+03   -.146E+02 0.841E+01 0.306E+03   -.587E+00 0.339E+00 -.521E+00   -.926E-03 0.535E-03 0.374E-01
   0.786E+01 -.454E+01 0.406E+03   -.711E+01 0.410E+01 -.406E+03   -.741E+00 0.428E+00 0.395E+00   -.106E-02 0.614E-03 -.669E-01
   0.152E+02 0.875E+01 0.305E+03   -.146E+02 -.841E+01 -.306E+03   -.587E+00 -.339E+00 0.521E+00   -.926E-03 -.535E-03 -.374E-01
   0.483E-04 0.907E+01 0.406E+03   -.196E-05 -.821E+01 -.406E+03   0.243E-16 -.856E+00 0.395E+00   0.759E-07 -.123E-02 -.669E-01
   0.770E+01 0.445E+01 -.220E+03   -.780E+01 -.450E+01 0.220E+03   0.951E-01 0.549E-01 -.461E+00   -.369E-03 -.213E-03 0.178E-01
   -.586E+02 -.338E+02 0.510E+03   0.582E+02 0.336E+02 -.510E+03   0.337E+00 0.194E+00 -.113E+00   -.180E-02 -.104E-02 -.861E-01
   -.457E-05 -.889E+01 -.220E+03   -.796E-06 0.900E+01 0.220E+03   0.173E-17 -.110E+00 -.461E+00   -.215E-08 0.426E-03 0.178E-01
   0.246E-05 0.676E+02 0.510E+03   -.135E-04 -.672E+02 -.510E+03   -.347E-17 -.389E+00 -.113E+00   0.139E-08 0.207E-02 -.861E-01
   -.770E+01 0.445E+01 -.220E+03   0.780E+01 -.450E+01 0.220E+03   -.951E-01 0.549E-01 -.461E+00   0.369E-03 -.213E-03 0.178E-01
   0.586E+02 -.338E+02 0.510E+03   -.582E+02 0.336E+02 -.510E+03   -.337E+00 0.194E+00 -.113E+00   0.180E-02 -.104E-02 -.861E-01
   -.356E-05 -.907E+01 -.406E+03   0.592E-06 0.821E+01 0.406E+03   -.382E-16 0.856E+00 -.395E+00   -.755E-07 0.123E-02 0.669E-01
   0.317E-05 0.247E+00 0.226E+03   0.928E-05 -.254E+00 -.226E+03   -.410E-18 0.129E-01 0.228E+00   0.150E-08 0.150E-02 -.673E-01
   0.786E+01 0.454E+01 -.406E+03   -.711E+01 -.410E+01 0.406E+03   -.741E+00 -.428E+00 -.395E+00   -.106E-02 -.614E-03 0.669E-01
   0.459E-04 0.889E+01 0.220E+03   -.534E-05 -.900E+01 -.220E+03   -.173E-17 0.110E+00 0.461E+00   0.163E-08 -.426E-03 -.178E-01
   0.589E-04 -.676E+02 -.510E+03   -.250E-04 0.672E+02 0.510E+03   0.104E-16 0.389E+00 0.113E+00   -.962E-09 -.207E-02 0.861E-01
   0.770E+01 -.445E+01 0.220E+03   -.780E+01 0.450E+01 -.220E+03   0.951E-01 -.549E-01 0.461E+00   -.369E-03 0.213E-03 -.178E-01
   -.586E+02 0.338E+02 -.510E+03   0.582E+02 -.336E+02 0.510E+03   0.337E+00 -.194E+00 0.113E+00   -.180E-02 0.104E-02 0.861E-01
   -.770E+01 -.445E+01 0.220E+03   0.780E+01 0.450E+01 -.220E+03   -.951E-01 -.549E-01 0.461E+00   0.369E-03 0.213E-03 -.178E-01
   0.586E+02 0.338E+02 -.510E+03   -.582E+02 -.336E+02 0.510E+03   -.337E+00 -.194E+00 0.113E+00   0.180E-02 0.104E-02 0.861E-01
   -.757E+01 -.437E+01 0.138E+03   0.772E+01 0.446E+01 -.138E+03   -.152E+00 -.877E-01 0.298E+00   -.171E-03 -.985E-04 -.657E-02
   0.214E+00 0.124E+00 -.226E+03   -.220E+00 -.127E+00 0.226E+03   0.112E-01 0.645E-02 -.228E+00   0.130E-02 0.749E-03 0.673E-01
   0.757E+01 -.437E+01 0.138E+03   -.772E+01 0.446E+01 -.138E+03   0.152E+00 -.877E-01 0.298E+00   0.171E-03 -.985E-04 -.657E-02
   -.214E+00 0.124E+00 -.226E+03   0.220E+00 -.127E+00 0.226E+03   -.112E-01 0.645E-02 -.228E+00   -.130E-02 0.749E-03 0.673E-01
   -.463E-04 0.874E+01 0.138E+03   0.812E-05 -.892E+01 -.138E+03   -.520E-17 0.175E+00 0.298E+00   0.153E-08 0.197E-03 -.657E-02
   0.137E-06 -.247E+00 -.226E+03   0.799E-05 0.254E+00 0.226E+03   0.352E-18 -.129E-01 -.228E+00   -.945E-09 -.150E-02 0.673E-01
   -.475E-04 -.874E+01 -.138E+03   0.736E-05 0.892E+01 0.138E+03   0.347E-17 -.175E+00 -.298E+00   -.690E-09 -.197E-03 0.657E-02
   0.639E+02 -.369E+02 0.644E+02   -.637E+02 0.368E+02 -.642E+02   -.250E+00 0.144E+00 -.204E+00   -.126E-03 0.730E-04 0.238E-01
   0.864E+00 -.499E+00 0.450E+02   -.868E+00 0.501E+00 -.450E+02   0.577E-02 -.333E-02 0.774E-01   0.145E-03 -.839E-04 -.171E-02
   0.919E-05 0.738E+02 0.644E+02   -.129E-04 -.735E+02 -.642E+02   0.000E+00 -.288E+00 -.204E+00   -.109E-08 -.146E-03 0.238E-01
   0.276E-05 0.997E+00 0.450E+02   -.130E-06 -.100E+01 -.450E+02   -.217E-18 0.666E-02 0.774E-01   -.184E-09 0.168E-03 -.171E-02
   -.639E+02 -.369E+02 0.644E+02   0.637E+02 0.368E+02 -.642E+02   0.250E+00 0.144E+00 -.204E+00   0.126E-03 0.730E-04 0.238E-01
   -.864E+00 -.499E+00 0.450E+02   0.868E+00 0.501E+00 -.450E+02   -.577E-02 -.333E-02 0.774E-01   -.145E-03 -.839E-04 -.171E-02
   0.588E-04 -.738E+02 -.644E+02   -.277E-04 0.735E+02 0.642E+02   0.000E+00 0.288E+00 0.204E+00   0.925E-09 0.146E-03 -.238E-01
   0.440E-04 -.997E+00 -.450E+02   -.725E-05 0.100E+01 0.450E+02   0.108E-18 -.666E-02 -.774E-01   -.469E-10 -.168E-03 0.171E-02
   -.639E+02 0.369E+02 -.644E+02   0.637E+02 -.368E+02 0.642E+02   0.250E+00 -.144E+00 0.204E+00   0.126E-03 -.730E-04 -.238E-01
   -.863E+00 0.499E+00 -.450E+02   0.868E+00 -.501E+00 0.450E+02   -.577E-02 0.333E-02 -.774E-01   -.145E-03 0.839E-04 0.171E-02
   0.639E+02 0.369E+02 -.644E+02   -.637E+02 -.368E+02 0.642E+02   -.250E+00 -.144E+00 0.204E+00   -.126E-03 -.730E-04 -.238E-01
   0.864E+00 0.498E+00 -.450E+02   -.868E+00 -.501E+00 0.450E+02   0.577E-02 0.333E-02 -.774E-01   0.145E-03 0.839E-04 0.171E-02
   -.214E+00 -.124E+00 0.226E+03   0.220E+00 0.127E+00 -.226E+03   -.112E-01 -.645E-02 0.228E+00   -.130E-02 -.749E-03 -.673E-01
   0.757E+01 0.437E+01 -.138E+03   -.772E+01 -.446E+01 0.138E+03   0.152E+00 0.877E-01 -.298E+00   0.171E-03 0.985E-04 0.657E-02
   0.214E+00 -.124E+00 0.226E+03   -.220E+00 0.127E+00 -.226E+03   0.112E-01 -.645E-02 0.228E+00   0.130E-02 -.749E-03 -.673E-01
   -.757E+01 0.437E+01 -.138E+03   0.772E+01 -.446E+01 0.138E+03   -.152E+00 0.877E-01 -.298E+00   -.171E-03 0.985E-04 0.657E-02
   -.670E-04 0.395E-04 0.498E+02   -.245E-06 -.186E-06 -.498E+02   0.000E+00 0.000E+00 0.430E-01   0.370E-09 -.149E-09 -.219E-02
   -.580E-03 0.324E-03 -.287E+02   -.427E-05 0.184E-04 0.286E+02   0.434E-18 0.000E+00 0.641E-01   -.867E-08 0.521E-08 -.275E-01
   -.571E-03 0.328E-03 -.498E+02   -.224E-04 0.132E-04 0.498E+02   0.000E+00 0.000E+00 -.430E-01   -.669E-09 0.322E-09 0.219E-02
   0.497E-03 -.289E-03 -.154E+03   0.220E-04 -.106E-04 0.154E+03   0.542E-19 -.217E-18 0.108E-01   0.120E-08 -.716E-09 0.820E-02
   -.729E-04 0.551E-04 0.535E+03   0.124E-04 -.222E-04 -.534E+03   0.434E-17 -.347E-17 -.322E+00   0.107E-08 -.254E-09 -.105E+00
   -.716E-04 0.323E-04 -.247E+03   0.406E-05 0.101E-05 0.247E+03   -.260E-17 0.000E+00 -.381E+00   -.332E-08 0.201E-08 0.218E-01
   -.565E-03 0.338E-03 0.454E+03   -.174E-04 -.393E-05 -.454E+03   -.867E-18 0.000E+00 -.923E-03   0.301E-07 -.177E-07 -.807E-01
   -.565E-03 0.337E-03 -.348E+03   -.185E-04 -.610E-05 0.349E+03   -.173E-17 0.867E-18 -.331E+00   0.216E-07 -.128E-07 0.453E-01
   -.692E-04 0.319E-04 0.348E+03   0.181E-04 0.632E-05 -.349E+03   0.173E-17 -.867E-18 0.331E+00   -.204E-07 0.121E-07 -.453E-01
   -.680E-04 0.267E-04 -.454E+03   0.188E-04 0.312E-05 0.454E+03   0.867E-18 0.000E+00 0.923E-03   -.285E-07 0.168E-07 0.807E-01
   -.562E-03 0.332E-03 0.247E+03   -.240E-04 0.105E-04 -.247E+03   0.434E-17 0.000E+00 0.381E+00   0.371E-08 -.223E-08 -.218E-01
   -.576E-03 0.319E-03 -.535E+03   -.786E-05 0.196E-04 0.534E+03   -.867E-18 0.347E-17 0.322E+00   -.946E-09 0.182E-09 0.105E+00
   0.498E-03 -.283E-03 0.154E+03   0.226E-04 -.151E-04 -.154E+03   -.163E-18 0.217E-18 -.108E-01   -.913E-09 0.547E-09 -.820E-02
   -.722E-04 0.520E-04 0.287E+02   0.117E-04 -.227E-04 -.286E+02   0.000E+00 0.867E-18 -.641E-01   0.890E-08 -.534E-08 0.275E-01
   -.206E-02 0.118E-02 -.601E-03   -.609E-12 -.915E-13 0.185E-12   0.200E-15 0.223E-15 -.236E-15   0.453E-08 -.262E-08 0.671E-07

 POSITION                                       TOTAL-FORCE (eV/Angst)
     -0.00000      2.93963     31.15904         0.000000      0.000000      0.002237
     -0.00000      2.93963      4.14804         0.000000      0.000000     -0.002237
      0.00000      1.51602     24.90607         0.000000      0.000234      0.007936
     -0.00000      4.36323     10.40101         0.000000     -0.000234     -0.007936
      1.23204      2.22831     27.00388        -0.007074      0.004084      0.025504
      1.23288      2.22783     10.40101        -0.000203      0.000117     -0.007936
      1.23288      3.65143     24.90607        -0.000203     -0.000117      0.007936
      1.23204      3.65094      8.30320        -0.007074     -0.004084     -0.025504
     -1.23288      3.65143     24.90607         0.000203     -0.000117      0.007936
     -1.23204      3.65094      8.30320         0.007074     -0.004084     -0.025504
     -1.23288      2.22783     10.40101         0.000203      0.000117     -0.007936
      0.00000      1.51699      8.30320        -0.000000      0.008169     -0.025504
      3.81066      2.20009     22.83337        -0.002438     -0.001408      0.002382
      3.81251      2.20115      6.22235        -0.009692     -0.005596     -0.012173
      2.54579      0.00927     22.83337         0.000000      0.002816      0.002382
      2.54579      0.00714      6.22235         0.000000      0.011192     -0.012173
      1.28092      2.20009     22.83337         0.002438     -0.001408      0.002382
      1.27908      2.20115      6.22235         0.009692     -0.005596     -0.012173
     -0.00000      4.36226     27.00388         0.000000     -0.008169      0.025504
      2.54579      2.93693      4.15332        -0.000000      0.007962      0.001383
     -1.23204      2.22831     27.00388         0.007074      0.004084      0.025504
      0.00000      1.46055     12.47371        -0.000000     -0.002816     -0.002382
      0.00000      1.46268     29.08473         0.000000     -0.011192      0.012173
     -1.28092      3.67917     12.47371        -0.002438      0.001408     -0.002382
     -1.27908      3.67810     29.08473        -0.009692      0.005596      0.012173
      1.28092      3.67917     12.47371         0.002438      0.001408     -0.002382
      1.27908      3.67810     29.08473         0.009692      0.005596      0.012173
      1.27348      0.73525     14.54327         0.001261      0.000728     -0.005857
      1.27056      0.73356     31.15376         0.006895      0.003981     -0.001383
      3.81810      0.73525     14.54327        -0.001261      0.000728     -0.005857
      3.82102      0.73356     31.15376        -0.006895      0.003981     -0.001383
      2.54579      2.93895     14.54327         0.000000     -0.001456     -0.005857
      2.54579      2.94233     31.15376         0.000000     -0.007962     -0.001383
      2.54579      2.94030     20.76381         0.000000      0.001456      0.005857
      1.27179      2.20536     33.22081        -0.007788      0.004497     -0.009018
      1.27281      2.20477     16.61631         0.000987     -0.000570      0.000103
     -0.00000      4.40817     33.22081        -0.000000     -0.008993     -0.009018
     -0.00000      4.40934     16.61631         0.000000      0.001140      0.000103
     -1.27179      2.20536     33.22081         0.007788      0.004497     -0.009018
     -1.27281      2.20477     16.61631        -0.000987     -0.000570      0.000103
      0.00000      1.47109      2.08627         0.000000      0.008993      0.009018
      0.00000      1.46992     18.69077         0.000000     -0.001140     -0.000103
     -1.27179      3.67390      2.08627         0.007788     -0.004497      0.009018
     -1.27281      3.67448     18.69077        -0.000987      0.000570     -0.000103
      1.27179      3.67390      2.08627        -0.007788     -0.004497      0.009018
      1.27281      3.67448     18.69077         0.000987      0.000570     -0.000103
      1.27523      0.73626      4.15332        -0.006895     -0.003981      0.001383
      1.27231      0.73457     20.76381        -0.001261     -0.000728      0.005857
      3.81635      0.73626      4.15332         0.006895     -0.003981      0.001383
      3.81927      0.73457     20.76381         0.001261     -0.000728      0.005857
      0.00000      0.00000     16.60896        -0.000000      0.000000     -0.007823
      2.54579      1.46981      2.02513         0.000000      0.000000     -0.050620
      2.54579      1.46981     18.69812         0.000000      0.000000      0.007823
     -0.00000      2.93963     20.78243         0.000000      0.000000      0.015079
      0.00000      0.00000      6.24768         0.000000      0.000000     -0.038575
      0.00000      0.00000     22.90196         0.000000      0.000000      0.002481
      2.54579      1.46981      8.29886         0.000000      0.000000      0.005863
      2.54579      1.46981     25.00113         0.000000      0.000000      0.041548
      0.00000      0.00000     10.30595         0.000000      0.000000     -0.041548
      0.00000      0.00000     27.00822         0.000000      0.000000     -0.005863
      2.54579      1.46981     12.40512         0.000000      0.000000     -0.002481
      2.54579      1.46981     29.05939        -0.000000      0.000000      0.038575
     -0.00000      2.93963     14.52465         0.000000      0.000000     -0.015079
      0.00000      0.00000      0.05176        -0.000000      0.000000      0.050620
    total drift:                               -0.002063      0.001183     -0.000601

  FREE ENERGIE OF THE ION-ELECTRON SYSTEM (eV)
  free  energy   TOTEN  =      -410.31671196 eV

  energy  without entropy=     -410.31671196  energy(sigma->0) =     -410.31671196

 total charge

[...]

 magnetization (x)

# of ion     s       p       d       tot
  1        0.000   0.000   0.000   0.000
  2        0.000   0.000   0.000   0.000
  3        0.000   0.000  -0.000  -0.000
  4        0.000   0.000  -0.000  -0.000
  5        0.000   0.000  -0.001  -0.001
  6        0.000   0.000  -0.000  -0.000
  7        0.000   0.000   0.000   0.000
  8        0.000   0.000  -0.001  -0.001
  9        0.000   0.000  -0.000  -0.000
 10        0.000   0.000  -0.001  -0.001
 11        0.000   0.000  -0.000  -0.000
 12        0.000   0.000  -0.001  -0.001
 13        0.000   0.000   0.000   0.000
 14        0.000   0.000  -0.002  -0.002
 15        0.000   0.000   0.000   0.000
 16        0.000   0.000  -0.002  -0.002
 17        0.000   0.000   0.000   0.000
 18        0.000   0.000  -0.002  -0.002
 19        0.000   0.000  -0.001  -0.001
 20        0.000   0.000  -0.003  -0.003
 21        0.000   0.000  -0.001  -0.001
 22        0.000   0.000  -0.000   0.000
 23        0.000   0.000  -0.002  -0.002
 24        0.000   0.000   0.000   0.000
 25        0.000   0.000  -0.002  -0.002
 26        0.000   0.000  -0.000  -0.000
 27        0.000   0.000  -0.002  -0.002
 28        0.000   0.000  -0.000  -0.000
 29        0.000   0.000  -0.003  -0.003
 30        0.000   0.000  -0.000  -0.000
 31        0.000   0.000  -0.003  -0.003
 32        0.000   0.000  -0.000  -0.000
 33        0.000   0.000  -0.003  -0.003
 34        0.000   0.000  -0.000  -0.000
 35        0.000   0.000  -0.002  -0.002
 36        0.000   0.000  -0.000  -0.000
 37        0.000   0.000  -0.002  -0.002
 38        0.000   0.000  -0.000  -0.000
 39        0.000   0.000  -0.002  -0.002
 40       -0.000   0.000  -0.000  -0.000
 41        0.000   0.000  -0.002  -0.002
 42        0.000   0.000  -0.000  -0.000
 43        0.000   0.000  -0.002  -0.001
 44        0.000   0.000  -0.000  -0.000
 45        0.000   0.000  -0.001  -0.001
 46       -0.000   0.000  -0.000  -0.000
 47        0.000   0.000  -0.002  -0.002
 48        0.000   0.000  -0.000  -0.000
 49        0.000   0.000  -0.003  -0.003
 50        0.000   0.000  -0.000   0.000
 51        0.000   0.000   0.000   0.000
 52        0.000   0.000   0.001   0.001
 53        0.000   0.000   0.000   0.000
 54        0.000   0.000   0.000   0.000
 55        0.000   0.000   0.001   0.001
 56        0.000   0.000   0.000   0.000
 57        0.000   0.000   0.001   0.001
 58        0.000   0.000   0.000   0.000
 59        0.000   0.000   0.000   0.000
 60        0.000   0.000   0.001   0.001
 61        0.000   0.000   0.000   0.000
 62        0.000   0.000   0.001   0.001
 63        0.000   0.000   0.000   0.000
 64        0.000   0.000   0.001   0.001
tot        0.001   0.002  -0.039  -0.036

 BZINTS: Fermi energy:  9.821003;654.000000 electrons
         Band energy: 698.875215;  BLOECHL correction: -0.011511